$molecule
0 1
@O   2.2376460000  1.4700110000  1.3553740000
@H   2.0498640000  2.3963470000  1.5974650000
@H   1.4038110000  0.9770910000  1.5178610000
O    0.1716960000 -2.6803580000  1.3314330000
H    1.0689320000 -2.9274510000  1.6241270000
H    0.1808420000 -2.7330190000  0.3480800000
@O   4.2012250000 -0.7948770000 -1.5318200000
@H   4.9836580000 -0.9628190000 -2.0659940000
@H   3.6564110000 -1.6324210000 -1.5293900000
@O  -2.6870280000 -3.1744910000 -1.5656220000
@H  -3.1621170000 -3.7888350000 -2.1334940000
@H  -3.1884480000 -2.3092690000 -1.5748960000
O   -2.5984150000 -3.1187180000  1.2568060000
H   -1.6651030000 -3.0849240000  1.5312330000
H   -2.5976400000 -3.3432030000  0.3081870000
@O   4.0432040000 -0.6648970000  1.2887700000
@H   3.5456560000  0.1444250000  1.5039780000
@H   4.2808540000 -0.6015990000  0.3459420000
@O  -2.5181500000  1.1253300000  1.3324680000
@H  -3.2164490000  0.4962930000  1.5931860000
@H  -2.5580960000  1.1890920000  0.3510810000
@O   2.4813910000  1.3928910000 -1.3712060000
@H   3.1677300000  0.7559470000 -1.6428550000
@H   2.5131880000  1.4240980000 -0.3885270000
@O   2.7986990000 -2.9961560000 -1.2577050000
@H   1.8547840000 -3.0084850000 -1.4975630000
@H   2.8472350000 -3.2162450000 -0.3098410000
@O   1.1991610000  4.0350640000  1.5152630000
@H   1.4087910000  4.7955180000  2.0660370000
@H   0.2095140000  3.9025880000  1.5525400000
$end

$rem
  method        wb97m-v
  basis         def2-ma-qzvpp
$end
